p tdp 38 72
18 21
15 31
22 35
9 31
3 12
23 28
13 14
7 23
11 29
17 32
35 37
6 10
1 35
3 38
7 16
11 13
19 33
8 33
26 29
15 38
4 32
19 24
16 34
1 25
13 17
6 21
2 23
5 11
1 27
24 35
30 34
16 22
11 15
12 21
13 28
20 30
26 36
5 22
3 23
20 26
7 29
2 18
7 34
17 22
31 38
12 31
13 36
8 28
1 10
23 27
3 17
11 34
2 8
9 36
10 16
17 25
10 22
21 22
1 28
15 16
19 21
27 29
8 12
2 38
1 20
30 36
1 5
1 3
3 30
14 33
8 32
10 26
